\ This file has been generated by DOcplex
\ ENCODING=ISO-8859-1
\Problem name: TRP_BigM

Minimize
 obj: thr_0_9_0 + thr_0_9_180 + thr_0_9_360 + thr_1_33_0 + thr_1_33_180
      + thr_1_33_360 + thr_2_25_0 + thr_2_25_180 + thr_2_25_360 + thr_3_9_0
      + thr_3_9_180 + thr_3_9_360 + thr_4_39_0 + thr_4_39_180 + thr_4_39_360
      + thr_5_39_0 + thr_5_39_180 + thr_5_39_360 + thr_6_29_0 + thr_6_29_180
      + thr_6_29_360
Subject To
 c1: - t_0_0 + t_0_1 >= 26
 c2: - t_0_1 + t_0_2 >= 240
 c3: - t_0_2 + t_0_3 >= 0
 c4: - t_0_3 + t_0_4 >= 210
 c5: - t_0_4 + t_0_5 >= 30
 c6: - t_0_5 + t_0_6 >= 300
 c7: - t_0_6 + t_0_7 >= 0
 c8: - t_0_7 + t_0_8 >= 180
 c9: - t_0_8 + t_0_9 >= 0
 c10: - t_0_9 + t_0_10 >= 300
 c11: - t_1_0 + t_1_1 >= 0
 c12: - t_1_1 + t_1_2 >= 297
 c13: - t_1_2 + t_1_3 >= 1140
 c14: - t_1_3 + t_1_4 >= 273
 c15: - t_1_4 + t_1_5 >= 0
 c16: - t_1_5 + t_1_6 >= 340
 c17: - t_1_6 + t_1_7 >= 0
 c18: - t_1_7 + t_1_8 >= 112
 c19: - t_1_8 + t_1_9 >= 0
 c20: - t_1_9 + t_1_10 >= 76
 c21: - t_1_10 + t_1_11 >= 0
 c22: - t_1_11 + t_1_12 >= 219
 c23: - t_1_12 + t_1_13 >= 599
 c24: - t_1_13 + t_1_14 >= 104
 c25: - t_1_14 + t_1_15 >= 0
 c26: - t_1_15 + t_1_16 >= 137
 c27: - t_1_16 + t_1_17 >= 180
 c28: - t_1_17 + t_1_18 >= 145
 c29: - t_1_18 + t_1_19 >= 0
 c30: - t_1_19 + t_1_20 >= 177
 c31: - t_1_20 + t_1_21 >= 0
 c32: - t_1_21 + t_1_22 >= 129
 c33: - t_1_22 + t_1_23 >= 0
 c34: - t_1_23 + t_1_24 >= 44
 c35: - t_1_24 + t_1_25 >= 0
 c36: - t_1_25 + t_1_26 >= 144
 c37: - t_1_26 + t_1_27 >= 0
 c38: - t_1_27 + t_1_28 >= 81
 c39: - t_1_28 + t_1_29 >= 480
 c40: - t_1_29 + t_1_30 >= 83
 c41: - t_1_30 + t_1_31 >= 0
 c42: - t_1_31 + t_1_32 >= 139
 c43: - t_1_32 + t_1_33 >= 0
 c44: - t_1_33 + t_1_34 >= 198
 c45: - t_2_0 + t_2_1 >= 0
 c46: - t_2_1 + t_2_2 >= 122
 c47: - t_2_2 + t_2_3 >= 30
 c48: - t_2_3 + t_2_4 >= 150
 c49: - t_2_4 + t_2_5 >= 30
 c50: - t_2_5 + t_2_6 >= 90
 c51: - t_2_6 + t_2_7 >= 30
 c52: - t_2_7 + t_2_8 >= 180
 c53: - t_2_8 + t_2_9 >= 180
 c54: - t_2_9 + t_2_10 >= 210
 c55: - t_2_10 + t_2_11 >= 30
 c56: - t_2_11 + t_2_12 >= 84
 c57: - t_2_12 + t_2_13 >= 0
 c58: - t_2_13 + t_2_14 >= 126
 c59: - t_2_14 + t_2_15 >= 30
 c60: - t_2_15 + t_2_16 >= 275
 c61: - t_2_16 + t_2_17 >= 0
 c62: - t_2_17 + t_2_18 >= 205
 c63: - t_2_18 + t_2_19 >= 0
 c64: - t_2_19 + t_2_20 >= 210
 c65: - t_2_20 + t_2_21 >= 30
 c66: - t_2_21 + t_2_22 >= 292
 c67: - t_2_22 + t_2_23 >= 0
 c68: - t_2_23 + t_2_24 >= 188
 c69: - t_2_24 + t_2_25 >= 180
 c70: - t_2_25 + t_2_26 >= 360
 c71: - t_3_0 + t_3_1 >= 1800
 c72: - t_3_1 + t_3_2 >= 431
 c73: - t_3_2 + t_3_3 >= 0
 c74: - t_3_3 + t_3_4 >= 309
 c75: - t_3_4 + t_3_5 >= 0
 c76: - t_3_5 + t_3_6 >= 580
 c77: - t_3_6 + t_3_7 >= 240
 c78: - t_3_7 + t_3_8 >= 309
 c79: - t_3_8 + t_3_9 >= 0
 c80: - t_3_9 + t_3_10 >= 299
 c81: - t_4_0 + t_4_1 >= 0
 c82: - t_4_1 + t_4_2 >= 59
 c83: - t_4_2 + t_4_3 >= 0
 c84: - t_4_3 + t_4_4 >= 178
 c85: - t_4_4 + t_4_5 >= 0
 c86: - t_4_5 + t_4_6 >= 227
 c87: - t_4_6 + t_4_7 >= 0
 c88: - t_4_7 + t_4_8 >= 196
 c89: - t_4_8 + t_4_9 >= 360
 c90: - t_4_9 + t_4_10 >= 142
 c91: - t_4_10 + t_4_11 >= 0
 c92: - t_4_11 + t_4_12 >= 101
 c93: - t_4_12 + t_4_13 >= 0
 c94: - t_4_13 + t_4_14 >= 208
 c95: - t_4_14 + t_4_15 >= 0
 c96: - t_4_15 + t_4_16 >= 103
 c97: - t_4_16 + t_4_17 >= 0
 c98: - t_4_17 + t_4_18 >= 156
 c99: - t_4_18 + t_4_19 >= 0
 c100: - t_4_19 + t_4_20 >= 407
 c101: - t_4_20 + t_4_21 >= 0
 c102: - t_4_21 + t_4_22 >= 288
 c103: - t_4_22 + t_4_23 >= 0
 c104: - t_4_23 + t_4_24 >= 335
 c105: - t_4_24 + t_4_25 >= 300
 c106: - t_4_25 + t_4_26 >= 470
 c107: - t_4_26 + t_4_27 >= 0
 c108: - t_4_27 + t_4_28 >= 241
 c109: - t_4_28 + t_4_29 >= 0
 c110: - t_4_29 + t_4_30 >= 429
 c111: - t_4_30 + t_4_31 >= 240
 c112: - t_4_31 + t_4_32 >= 372
 c113: - t_4_32 + t_4_33 >= 0
 c114: - t_4_33 + t_4_34 >= 267
 c115: - t_4_34 + t_4_35 >= 0
 c116: - t_4_35 + t_4_36 >= 480
 c117: - t_4_36 + t_4_37 >= 0
 c118: - t_4_37 + t_4_38 >= 215
 c119: - t_4_38 + t_4_39 >= 0
 c120: - t_4_39 + t_4_40 >= 286
 c121: - t_5_0 + t_5_1 >= 60
 c122: - t_5_1 + t_5_2 >= 157
 c123: - t_5_2 + t_5_3 >= 0
 c124: - t_5_3 + t_5_4 >= 113
 c125: - t_5_4 + t_5_5 >= 30
 c126: - t_5_5 + t_5_6 >= 150
 c127: - t_5_6 + t_5_7 >= 30
 c128: - t_5_7 + t_5_8 >= 90
 c129: - t_5_8 + t_5_9 >= 30
 c130: - t_5_9 + t_5_10 >= 120
 c131: - t_5_10 + t_5_11 >= 0
 c132: - t_5_11 + t_5_12 >= 45
 c133: - t_5_12 + t_5_13 >= 0
 c134: - t_5_13 + t_5_14 >= 135
 c135: - t_5_14 + t_5_15 >= 60
 c136: - t_5_15 + t_5_16 >= 210
 c137: - t_5_16 + t_5_17 >= 30
 c138: - t_5_17 + t_5_18 >= 150
 c139: - t_5_18 + t_5_19 >= 30
 c140: - t_5_19 + t_5_20 >= 150
 c141: - t_5_20 + t_5_21 >= 30
 c142: - t_5_21 + t_5_22 >= 90
 c143: - t_5_22 + t_5_23 >= 30
 c144: - t_5_23 + t_5_24 >= 171
 c145: - t_5_24 + t_5_25 >= 0
 c146: - t_5_25 + t_5_26 >= 83
 c147: - t_5_26 + t_5_27 >= 0
 c148: - t_5_27 + t_5_28 >= 126
 c149: - t_5_28 + t_5_29 >= 40
 c150: - t_5_29 + t_5_30 >= 480
 c151: - t_5_30 + t_5_31 >= 180
 c152: - t_5_31 + t_5_32 >= 240
 c153: - t_5_32 + t_5_33 >= 0
 c154: - t_5_33 + t_5_34 >= 210
 c155: - t_5_34 + t_5_35 >= 30
 c156: - t_5_35 + t_5_36 >= 240
 c157: - t_5_36 + t_5_37 >= 0
 c158: - t_5_37 + t_5_38 >= 180
 c159: - t_5_38 + t_5_39 >= 0
 c160: - t_5_39 + t_5_40 >= 360
 c161: - t_6_0 + t_6_1 >= 0
 c162: - t_6_1 + t_6_2 >= 380
 c163: - t_6_2 + t_6_3 >= 40
 c164: - t_6_3 + t_6_4 >= 120
 c165: - t_6_4 + t_6_5 >= 0
 c166: - t_6_5 + t_6_6 >= 81
 c167: - t_6_6 + t_6_7 >= 0
 c168: - t_6_7 + t_6_8 >= 189
 c169: - t_6_8 + t_6_9 >= 30
 c170: - t_6_9 + t_6_10 >= 150
 c171: - t_6_10 + t_6_11 >= 30
 c172: - t_6_11 + t_6_12 >= 90
 c173: - t_6_12 + t_6_13 >= 30
 c174: - t_6_13 + t_6_14 >= 150
 c175: - t_6_14 + t_6_15 >= 30
 c176: - t_6_15 + t_6_16 >= 240
 c177: - t_6_16 + t_6_17 >= 180
 c178: - t_6_17 + t_6_18 >= 90
 c179: - t_6_18 + t_6_19 >= 0
 c180: - t_6_19 + t_6_20 >= 30
 c181: - t_6_20 + t_6_21 >= 0
 c182: - t_6_21 + t_6_22 >= 150
 c183: - t_6_22 + t_6_23 >= 30
 c184: - t_6_23 + t_6_24 >= 90
 c185: - t_6_24 + t_6_25 >= 30
 c186: - t_6_25 + t_6_26 >= 90
 c187: - t_6_26 + t_6_27 >= 30
 c188: - t_6_27 + t_6_28 >= 110
 c189: - t_6_28 + t_6_29 >= 0
 c190: - t_6_29 + t_6_30 >= 190
 c191: t_0_2 - t_1_3 + 43200 y_0_1_1_3 <= 43200
 c192: t_1_4 - t_0_1 - 43200 y_0_1_1_3 <= 0
 c193: t_0_4 - t_1_1 + 43200 y_0_3_1_1 <= 43200
 c194: t_1_2 - t_0_3 - 43200 y_0_3_1_1 <= 0
 c195: t_0_2 - t_2_17 + 43200 y_0_1_2_17 <= 43200
 c196: t_2_18 - t_0_1 - 43200 y_0_1_2_17 <= 0
 c197: t_0_4 - t_2_19 + 43200 y_0_3_2_19 <= 43200
 c198: t_2_20 - t_0_3 - 43200 y_0_3_2_19 <= 0
 c199: t_0_6 - t_2_21 + 43200 y_0_5_2_21 <= 43200
 c200: t_2_22 - t_0_5 - 43200 y_0_5_2_21 <= 0
 c201: t_0_8 - t_2_23 + 43200 y_0_7_2_23 <= 43200
 c202: t_2_24 - t_0_7 - 43200 y_0_7_2_23 <= 0
 c203: t_0_10 - t_2_25 + 43200 y_0_9_2_25 <= 43200
 c204: t_2_26 - t_0_9 - 43200 y_0_9_2_25 <= 0
 c205: t_0_2 - t_4_21 + 43200 y_0_1_4_21 <= 43200
 c206: t_4_22 - t_0_1 - 43200 y_0_1_4_21 <= 0
 c207: t_0_4 - t_4_23 + 43200 y_0_3_4_23 <= 43200
 c208: t_4_24 - t_0_3 - 43200 y_0_3_4_23 <= 0
 c209: t_0_6 - t_4_25 + 43200 y_0_5_4_25 <= 43200
 c210: t_4_26 - t_0_5 - 43200 y_0_5_4_25 <= 0
 c211: t_0_8 - t_4_27 + 43200 y_0_7_4_27 <= 43200
 c212: t_4_28 - t_0_7 - 43200 y_0_7_4_27 <= 0
 c213: t_0_10 - t_4_29 + 43200 y_0_9_4_29 <= 43200
 c214: t_4_30 - t_0_9 - 43200 y_0_9_4_29 <= 0
 c215: t_0_2 - t_5_31 + 43200 y_0_1_5_31 <= 43200
 c216: t_5_32 - t_0_1 - 43200 y_0_1_5_31 <= 0
 c217: t_0_4 - t_5_33 + 43200 y_0_3_5_33 <= 43200
 c218: t_5_34 - t_0_3 - 43200 y_0_3_5_33 <= 0
 c219: t_0_6 - t_5_35 + 43200 y_0_5_5_35 <= 43200
 c220: t_5_36 - t_0_5 - 43200 y_0_5_5_35 <= 0
 c221: t_0_8 - t_5_37 + 43200 y_0_7_5_37 <= 43200
 c222: t_5_38 - t_0_7 - 43200 y_0_7_5_37 <= 0
 c223: t_0_10 - t_5_39 + 43200 y_0_9_5_39 <= 43200
 c224: t_5_40 - t_0_9 - 43200 y_0_9_5_39 <= 0
 c225: t_1_2 - t_2_19 + 43200 y_1_1_2_19 <= 43200
 c226: t_2_20 - t_1_1 - 43200 y_1_1_2_19 <= 0
 c227: t_1_4 - t_2_17 + 43200 y_1_3_2_17 <= 43200
 c228: t_2_18 - t_1_3 - 43200 y_1_3_2_17 <= 0
 c229: t_1_6 - t_2_15 + 43200 y_1_5_2_15 <= 43200
 c230: t_2_16 - t_1_5 - 43200 y_1_5_2_15 <= 0
 c231: t_1_8 - t_2_13 + 43200 y_1_7_2_13 <= 43200
 c232: t_2_14 - t_1_7 - 43200 y_1_7_2_13 <= 0
 c233: t_1_10 - t_2_11 + 43200 y_1_9_2_11 <= 43200
 c234: t_2_12 - t_1_9 - 43200 y_1_9_2_11 <= 0
 c235: t_1_12 - t_2_9 + 43200 y_1_11_2_9 <= 43200
 c236: t_2_10 - t_1_11 - 43200 y_1_11_2_9 <= 0
 c237: t_1_14 - t_2_7 + 43200 y_1_13_2_7 <= 43200
 c238: t_2_8 - t_1_13 - 43200 y_1_13_2_7 <= 0
 c239: t_1_16 - t_2_5 + 43200 y_1_15_2_5 <= 43200
 c240: t_2_6 - t_1_15 - 43200 y_1_15_2_5 <= 0
 c241: t_1_18 - t_2_3 + 43200 y_1_17_2_3 <= 43200
 c242: t_2_4 - t_1_17 - 43200 y_1_17_2_3 <= 0
 c243: t_1_20 - t_2_1 + 43200 y_1_19_2_1 <= 43200
 c244: t_2_2 - t_1_19 - 43200 y_1_19_2_1 <= 0
 c245: t_1_2 - t_4_23 + 43200 y_1_1_4_23 <= 43200
 c246: t_4_24 - t_1_1 - 43200 y_1_1_4_23 <= 0
 c247: t_1_4 - t_4_21 + 43200 y_1_3_4_21 <= 43200
 c248: t_4_22 - t_1_3 - 43200 y_1_3_4_21 <= 0
 c249: t_1_6 - t_4_19 + 43200 y_1_5_4_19 <= 43200
 c250: t_4_20 - t_1_5 - 43200 y_1_5_4_19 <= 0
 c251: t_1_8 - t_4_17 + 43200 y_1_7_4_17 <= 43200
 c252: t_4_18 - t_1_7 - 43200 y_1_7_4_17 <= 0
 c253: t_1_10 - t_4_15 + 43200 y_1_9_4_15 <= 43200
 c254: t_4_16 - t_1_9 - 43200 y_1_9_4_15 <= 0
 c255: t_1_12 - t_4_13 + 43200 y_1_11_4_13 <= 43200
 c256: t_4_14 - t_1_11 - 43200 y_1_11_4_13 <= 0
 c257: t_1_14 - t_4_11 + 43200 y_1_13_4_11 <= 43200
 c258: t_4_12 - t_1_13 - 43200 y_1_13_4_11 <= 0
 c259: t_1_16 - t_4_9 + 43200 y_1_15_4_9 <= 43200
 c260: t_4_10 - t_1_15 - 43200 y_1_15_4_9 <= 0
 c261: t_1_18 - t_4_7 + 43200 y_1_17_4_7 <= 43200
 c262: t_4_8 - t_1_17 - 43200 y_1_17_4_7 <= 0
 c263: t_1_20 - t_4_5 + 43200 y_1_19_4_5 <= 43200
 c264: t_4_6 - t_1_19 - 43200 y_1_19_4_5 <= 0
 c265: t_1_22 - t_4_3 + 43200 y_1_21_4_3 <= 43200
 c266: t_4_4 - t_1_21 - 43200 y_1_21_4_3 <= 0
 c267: t_1_24 - t_4_1 + 43200 y_1_23_4_1 <= 43200
 c268: t_4_2 - t_1_23 - 43200 y_1_23_4_1 <= 0
 c269: t_1_2 - t_5_33 + 43200 y_1_1_5_33 <= 43200
 c270: t_5_34 - t_1_1 - 43200 y_1_1_5_33 <= 0
 c271: t_1_4 - t_5_31 + 43200 y_1_3_5_31 <= 43200
 c272: t_5_32 - t_1_3 - 43200 y_1_3_5_31 <= 0
 c273: t_1_6 - t_5_29 + 43200 y_1_5_5_29 <= 43200
 c274: t_5_30 - t_1_5 - 43200 y_1_5_5_29 <= 0
 c275: t_1_8 - t_5_27 + 43200 y_1_7_5_27 <= 43200
 c276: t_5_28 - t_1_7 - 43200 y_1_7_5_27 <= 0
 c277: t_1_10 - t_5_25 + 43200 y_1_9_5_25 <= 43200
 c278: t_5_26 - t_1_9 - 43200 y_1_9_5_25 <= 0
 c279: t_1_12 - t_5_23 + 43200 y_1_11_5_23 <= 43200
 c280: t_5_24 - t_1_11 - 43200 y_1_11_5_23 <= 0
 c281: t_1_14 - t_5_21 + 43200 y_1_13_5_21 <= 43200
 c282: t_5_22 - t_1_13 - 43200 y_1_13_5_21 <= 0
 c283: t_1_16 - t_5_19 + 43200 y_1_15_5_19 <= 43200
 c284: t_5_20 - t_1_15 - 43200 y_1_15_5_19 <= 0
 c285: t_1_18 - t_5_17 + 43200 y_1_17_5_17 <= 43200
 c286: t_5_18 - t_1_17 - 43200 y_1_17_5_17 <= 0
 c287: t_1_20 - t_5_15 + 43200 y_1_19_5_15 <= 43200
 c288: t_5_16 - t_1_19 - 43200 y_1_19_5_15 <= 0
 c289: t_1_22 - t_5_13 + 43200 y_1_21_5_13 <= 43200
 c290: t_5_14 - t_1_21 - 43200 y_1_21_5_13 <= 0
 c291: t_1_24 - t_5_11 + 43200 y_1_23_5_11 <= 43200
 c292: t_5_12 - t_1_23 - 43200 y_1_23_5_11 <= 0
 c293: t_1_26 - t_5_9 + 43200 y_1_25_5_9 <= 43200
 c294: t_5_10 - t_1_25 - 43200 y_1_25_5_9 <= 0
 c295: t_1_28 - t_5_7 + 43200 y_1_27_5_7 <= 43200
 c296: t_5_8 - t_1_27 - 43200 y_1_27_5_7 <= 0
 c297: t_1_30 - t_5_5 + 43200 y_1_29_5_5 <= 43200
 c298: t_5_6 - t_1_29 - 43200 y_1_29_5_5 <= 0
 c299: t_1_32 - t_5_3 + 43200 y_1_31_5_3 <= 43200
 c300: t_5_4 - t_1_31 - 43200 y_1_31_5_3 <= 0
 c301: t_1_34 - t_5_1 + 43200 y_1_33_5_1 <= 43200
 c302: t_5_2 - t_1_33 - 43200 y_1_33_5_1 <= 0
 c303: t_1_6 - t_6_1 + 43200 y_1_5_6_1 <= 43200
 c304: t_6_2 - t_1_5 - 43200 y_1_5_6_1 <= 0
 c305: t_1_8 - t_6_3 + 43200 y_1_7_6_3 <= 43200
 c306: t_6_4 - t_1_7 - 43200 y_1_7_6_3 <= 0
 c307: t_1_10 - t_6_5 + 43200 y_1_9_6_5 <= 43200
 c308: t_6_6 - t_1_9 - 43200 y_1_9_6_5 <= 0
 c309: t_1_12 - t_6_7 + 43200 y_1_11_6_7 <= 43200
 c310: t_6_8 - t_1_11 - 43200 y_1_11_6_7 <= 0
 c311: t_1_14 - t_6_9 + 43200 y_1_13_6_9 <= 43200
 c312: t_6_10 - t_1_13 - 43200 y_1_13_6_9 <= 0
 c313: t_1_16 - t_6_11 + 43200 y_1_15_6_11 <= 43200
 c314: t_6_12 - t_1_15 - 43200 y_1_15_6_11 <= 0
 c315: t_1_18 - t_6_13 + 43200 y_1_17_6_13 <= 43200
 c316: t_6_14 - t_1_17 - 43200 y_1_17_6_13 <= 0
 c317: t_1_20 - t_6_15 + 43200 y_1_19_6_15 <= 43200
 c318: t_6_16 - t_1_19 - 43200 y_1_19_6_15 <= 0
 c319: t_1_22 - t_6_17 + 43200 y_1_21_6_17 <= 43200
 c320: t_6_18 - t_1_21 - 43200 y_1_21_6_17 <= 0
 c321: t_1_24 - t_6_19 + 43200 y_1_23_6_19 <= 43200
 c322: t_6_20 - t_1_23 - 43200 y_1_23_6_19 <= 0
 c323: t_1_26 - t_6_21 + 43200 y_1_25_6_21 <= 43200
 c324: t_6_22 - t_1_25 - 43200 y_1_25_6_21 <= 0
 c325: t_1_28 - t_6_23 + 43200 y_1_27_6_23 <= 43200
 c326: t_6_24 - t_1_27 - 43200 y_1_27_6_23 <= 0
 c327: t_1_30 - t_6_25 + 43200 y_1_29_6_25 <= 43200
 c328: t_6_26 - t_1_29 - 43200 y_1_29_6_25 <= 0
 c329: t_1_32 - t_6_27 + 43200 y_1_31_6_27 <= 43200
 c330: t_6_28 - t_1_31 - 43200 y_1_31_6_27 <= 0
 c331: t_1_34 - t_6_29 + 43200 y_1_33_6_29 <= 43200
 c332: t_6_30 - t_1_33 - 43200 y_1_33_6_29 <= 0
 c333: t_2_2 - t_4_5 + 43200 y_2_1_4_5 <= 43200
 c334: t_4_6 - t_2_1 - 43200 y_2_1_4_5 <= 0
 c335: t_2_4 - t_4_7 + 43200 y_2_3_4_7 <= 43200
 c336: t_4_8 - t_2_3 - 43200 y_2_3_4_7 <= 0
 c337: t_2_6 - t_4_9 + 43200 y_2_5_4_9 <= 43200
 c338: t_4_10 - t_2_5 - 43200 y_2_5_4_9 <= 0
 c339: t_2_8 - t_4_11 + 43200 y_2_7_4_11 <= 43200
 c340: t_4_12 - t_2_7 - 43200 y_2_7_4_11 <= 0
 c341: t_2_10 - t_4_13 + 43200 y_2_9_4_13 <= 43200
 c342: t_4_14 - t_2_9 - 43200 y_2_9_4_13 <= 0
 c343: t_2_12 - t_4_15 + 43200 y_2_11_4_15 <= 43200
 c344: t_4_16 - t_2_11 - 43200 y_2_11_4_15 <= 0
 c345: t_2_14 - t_4_17 + 43200 y_2_13_4_17 <= 43200
 c346: t_4_18 - t_2_13 - 43200 y_2_13_4_17 <= 0
 c347: t_2_16 - t_4_19 + 43200 y_2_15_4_19 <= 43200
 c348: t_4_20 - t_2_15 - 43200 y_2_15_4_19 <= 0
 c349: t_2_18 - t_4_21 + 43200 y_2_17_4_21 <= 43200
 c350: t_4_22 - t_2_17 - 43200 y_2_17_4_21 <= 0
 c351: t_2_20 - t_4_23 + 43200 y_2_19_4_23 <= 43200
 c352: t_4_24 - t_2_19 - 43200 y_2_19_4_23 <= 0
 c353: t_2_22 - t_4_25 + 43200 y_2_21_4_25 <= 43200
 c354: t_4_26 - t_2_21 - 43200 y_2_21_4_25 <= 0
 c355: t_2_24 - t_4_27 + 43200 y_2_23_4_27 <= 43200
 c356: t_4_28 - t_2_23 - 43200 y_2_23_4_27 <= 0
 c357: t_2_26 - t_4_29 + 43200 y_2_25_4_29 <= 43200
 c358: t_4_30 - t_2_25 - 43200 y_2_25_4_29 <= 0
 c359: t_2_2 - t_5_15 + 43200 y_2_1_5_15 <= 43200
 c360: t_5_16 - t_2_1 - 43200 y_2_1_5_15 <= 0
 c361: t_2_4 - t_5_17 + 43200 y_2_3_5_17 <= 43200
 c362: t_5_18 - t_2_3 - 43200 y_2_3_5_17 <= 0
 c363: t_2_6 - t_5_19 + 43200 y_2_5_5_19 <= 43200
 c364: t_5_20 - t_2_5 - 43200 y_2_5_5_19 <= 0
 c365: t_2_8 - t_5_21 + 43200 y_2_7_5_21 <= 43200
 c366: t_5_22 - t_2_7 - 43200 y_2_7_5_21 <= 0
 c367: t_2_10 - t_5_23 + 43200 y_2_9_5_23 <= 43200
 c368: t_5_24 - t_2_9 - 43200 y_2_9_5_23 <= 0
 c369: t_2_12 - t_5_25 + 43200 y_2_11_5_25 <= 43200
 c370: t_5_26 - t_2_11 - 43200 y_2_11_5_25 <= 0
 c371: t_2_14 - t_5_27 + 43200 y_2_13_5_27 <= 43200
 c372: t_5_28 - t_2_13 - 43200 y_2_13_5_27 <= 0
 c373: t_2_16 - t_5_29 + 43200 y_2_15_5_29 <= 43200
 c374: t_5_30 - t_2_15 - 43200 y_2_15_5_29 <= 0
 c375: t_2_18 - t_5_31 + 43200 y_2_17_5_31 <= 43200
 c376: t_5_32 - t_2_17 - 43200 y_2_17_5_31 <= 0
 c377: t_2_20 - t_5_33 + 43200 y_2_19_5_33 <= 43200
 c378: t_5_34 - t_2_19 - 43200 y_2_19_5_33 <= 0
 c379: t_2_22 - t_5_35 + 43200 y_2_21_5_35 <= 43200
 c380: t_5_36 - t_2_21 - 43200 y_2_21_5_35 <= 0
 c381: t_2_24 - t_5_37 + 43200 y_2_23_5_37 <= 43200
 c382: t_5_38 - t_2_23 - 43200 y_2_23_5_37 <= 0
 c383: t_2_26 - t_5_39 + 43200 y_2_25_5_39 <= 43200
 c384: t_5_40 - t_2_25 - 43200 y_2_25_5_39 <= 0
 c385: t_2_2 - t_6_15 + 43200 y_2_1_6_15 <= 43200
 c386: t_6_16 - t_2_1 - 43200 y_2_1_6_15 <= 0
 c387: t_2_4 - t_6_13 + 43200 y_2_3_6_13 <= 43200
 c388: t_6_14 - t_2_3 - 43200 y_2_3_6_13 <= 0
 c389: t_2_6 - t_6_11 + 43200 y_2_5_6_11 <= 43200
 c390: t_6_12 - t_2_5 - 43200 y_2_5_6_11 <= 0
 c391: t_2_8 - t_6_9 + 43200 y_2_7_6_9 <= 43200
 c392: t_6_10 - t_2_7 - 43200 y_2_7_6_9 <= 0
 c393: t_2_10 - t_6_7 + 43200 y_2_9_6_7 <= 43200
 c394: t_6_8 - t_2_9 - 43200 y_2_9_6_7 <= 0
 c395: t_2_12 - t_6_5 + 43200 y_2_11_6_5 <= 43200
 c396: t_6_6 - t_2_11 - 43200 y_2_11_6_5 <= 0
 c397: t_2_14 - t_6_3 + 43200 y_2_13_6_3 <= 43200
 c398: t_6_4 - t_2_13 - 43200 y_2_13_6_3 <= 0
 c399: t_2_16 - t_6_1 + 43200 y_2_15_6_1 <= 43200
 c400: t_6_2 - t_2_15 - 43200 y_2_15_6_1 <= 0
 c401: t_3_2 - t_4_31 + 43200 y_3_1_4_31 <= 43200
 c402: t_4_32 - t_3_1 - 43200 y_3_1_4_31 <= 0
 c403: t_3_4 - t_4_33 + 43200 y_3_3_4_33 <= 43200
 c404: t_4_34 - t_3_3 - 43200 y_3_3_4_33 <= 0
 c405: t_3_6 - t_4_35 + 43200 y_3_5_4_35 <= 43200
 c406: t_4_36 - t_3_5 - 43200 y_3_5_4_35 <= 0
 c407: t_3_8 - t_4_37 + 43200 y_3_7_4_37 <= 43200
 c408: t_4_38 - t_3_7 - 43200 y_3_7_4_37 <= 0
 c409: t_3_10 - t_4_39 + 43200 y_3_9_4_39 <= 43200
 c410: t_4_40 - t_3_9 - 43200 y_3_9_4_39 <= 0
 c411: t_4_2 - t_5_11 + 43200 y_4_1_5_11 <= 43200
 c412: t_5_12 - t_4_1 - 43200 y_4_1_5_11 <= 0
 c413: t_4_4 - t_5_13 + 43200 y_4_3_5_13 <= 43200
 c414: t_5_14 - t_4_3 - 43200 y_4_3_5_13 <= 0
 c415: t_4_6 - t_5_15 + 43200 y_4_5_5_15 <= 43200
 c416: t_5_16 - t_4_5 - 43200 y_4_5_5_15 <= 0
 c417: t_4_8 - t_5_17 + 43200 y_4_7_5_17 <= 43200
 c418: t_5_18 - t_4_7 - 43200 y_4_7_5_17 <= 0
 c419: t_4_10 - t_5_19 + 43200 y_4_9_5_19 <= 43200
 c420: t_5_20 - t_4_9 - 43200 y_4_9_5_19 <= 0
 c421: t_4_12 - t_5_21 + 43200 y_4_11_5_21 <= 43200
 c422: t_5_22 - t_4_11 - 43200 y_4_11_5_21 <= 0
 c423: t_4_14 - t_5_23 + 43200 y_4_13_5_23 <= 43200
 c424: t_5_24 - t_4_13 - 43200 y_4_13_5_23 <= 0
 c425: t_4_16 - t_5_25 + 43200 y_4_15_5_25 <= 43200
 c426: t_5_26 - t_4_15 - 43200 y_4_15_5_25 <= 0
 c427: t_4_18 - t_5_27 + 43200 y_4_17_5_27 <= 43200
 c428: t_5_28 - t_4_17 - 43200 y_4_17_5_27 <= 0
 c429: t_4_20 - t_5_29 + 43200 y_4_19_5_29 <= 43200
 c430: t_5_30 - t_4_19 - 43200 y_4_19_5_29 <= 0
 c431: t_4_22 - t_5_31 + 43200 y_4_21_5_31 <= 43200
 c432: t_5_32 - t_4_21 - 43200 y_4_21_5_31 <= 0
 c433: t_4_24 - t_5_33 + 43200 y_4_23_5_33 <= 43200
 c434: t_5_34 - t_4_23 - 43200 y_4_23_5_33 <= 0
 c435: t_4_26 - t_5_35 + 43200 y_4_25_5_35 <= 43200
 c436: t_5_36 - t_4_25 - 43200 y_4_25_5_35 <= 0
 c437: t_4_28 - t_5_37 + 43200 y_4_27_5_37 <= 43200
 c438: t_5_38 - t_4_27 - 43200 y_4_27_5_37 <= 0
 c439: t_4_30 - t_5_39 + 43200 y_4_29_5_39 <= 43200
 c440: t_5_40 - t_4_29 - 43200 y_4_29_5_39 <= 0
 c441: t_4_2 - t_6_19 + 43200 y_4_1_6_19 <= 43200
 c442: t_6_20 - t_4_1 - 43200 y_4_1_6_19 <= 0
 c443: t_4_4 - t_6_17 + 43200 y_4_3_6_17 <= 43200
 c444: t_6_18 - t_4_3 - 43200 y_4_3_6_17 <= 0
 c445: t_4_6 - t_6_15 + 43200 y_4_5_6_15 <= 43200
 c446: t_6_16 - t_4_5 - 43200 y_4_5_6_15 <= 0
 c447: t_4_8 - t_6_13 + 43200 y_4_7_6_13 <= 43200
 c448: t_6_14 - t_4_7 - 43200 y_4_7_6_13 <= 0
 c449: t_4_10 - t_6_11 + 43200 y_4_9_6_11 <= 43200
 c450: t_6_12 - t_4_9 - 43200 y_4_9_6_11 <= 0
 c451: t_4_12 - t_6_9 + 43200 y_4_11_6_9 <= 43200
 c452: t_6_10 - t_4_11 - 43200 y_4_11_6_9 <= 0
 c453: t_4_14 - t_6_7 + 43200 y_4_13_6_7 <= 43200
 c454: t_6_8 - t_4_13 - 43200 y_4_13_6_7 <= 0
 c455: t_4_16 - t_6_5 + 43200 y_4_15_6_5 <= 43200
 c456: t_6_6 - t_4_15 - 43200 y_4_15_6_5 <= 0
 c457: t_4_18 - t_6_3 + 43200 y_4_17_6_3 <= 43200
 c458: t_6_4 - t_4_17 - 43200 y_4_17_6_3 <= 0
 c459: t_4_20 - t_6_1 + 43200 y_4_19_6_1 <= 43200
 c460: t_6_2 - t_4_19 - 43200 y_4_19_6_1 <= 0
 c461: t_5_2 - t_6_29 + 43200 y_5_1_6_29 <= 43200
 c462: t_6_30 - t_5_1 - 43200 y_5_1_6_29 <= 0
 c463: t_5_4 - t_6_27 + 43200 y_5_3_6_27 <= 43200
 c464: t_6_28 - t_5_3 - 43200 y_5_3_6_27 <= 0
 c465: t_5_6 - t_6_25 + 43200 y_5_5_6_25 <= 43200
 c466: t_6_26 - t_5_5 - 43200 y_5_5_6_25 <= 0
 c467: t_5_8 - t_6_23 + 43200 y_5_7_6_23 <= 43200
 c468: t_6_24 - t_5_7 - 43200 y_5_7_6_23 <= 0
 c469: t_5_10 - t_6_21 + 43200 y_5_9_6_21 <= 43200
 c470: t_6_22 - t_5_9 - 43200 y_5_9_6_21 <= 0
 c471: t_5_12 - t_6_19 + 43200 y_5_11_6_19 <= 43200
 c472: t_6_20 - t_5_11 - 43200 y_5_11_6_19 <= 0
 c473: t_5_14 - t_6_17 + 43200 y_5_13_6_17 <= 43200
 c474: t_6_18 - t_5_13 - 43200 y_5_13_6_17 <= 0
 c475: t_5_16 - t_6_15 + 43200 y_5_15_6_15 <= 43200
 c476: t_6_16 - t_5_15 - 43200 y_5_15_6_15 <= 0
 c477: t_5_18 - t_6_13 + 43200 y_5_17_6_13 <= 43200
 c478: t_6_14 - t_5_17 - 43200 y_5_17_6_13 <= 0
 c479: t_5_20 - t_6_11 + 43200 y_5_19_6_11 <= 43200
 c480: t_6_12 - t_5_19 - 43200 y_5_19_6_11 <= 0
 c481: t_5_22 - t_6_9 + 43200 y_5_21_6_9 <= 43200
 c482: t_6_10 - t_5_21 - 43200 y_5_21_6_9 <= 0
 c483: t_5_24 - t_6_7 + 43200 y_5_23_6_7 <= 43200
 c484: t_6_8 - t_5_23 - 43200 y_5_23_6_7 <= 0
 c485: t_5_26 - t_6_5 + 43200 y_5_25_6_5 <= 43200
 c486: t_6_6 - t_5_25 - 43200 y_5_25_6_5 <= 0
 c487: t_5_28 - t_6_3 + 43200 y_5_27_6_3 <= 43200
 c488: t_6_4 - t_5_27 - 43200 y_5_27_6_3 <= 0
 c489: t_5_30 - t_6_1 + 43200 y_5_29_6_1 <= 43200
 c490: t_6_2 - t_5_29 - 43200 y_5_29_6_1 <= 0
 c491: t_0_9 - 43200 thr_0_9_0 <= 840
 c492: t_0_9 - 43200 thr_0_9_180 <= 1020
 c493: t_0_9 - 43200 thr_0_9_360 <= 1200
 c494: t_1_33 - 43200 thr_1_33_0 <= -78
 c495: t_1_33 - 43200 thr_1_33_180 <= 102
 c496: t_1_33 - 43200 thr_1_33_360 <= 282
 c497: t_2_25 - 43200 thr_2_25_0 <= 2580
 c498: t_2_25 - 43200 thr_2_25_180 <= 2760
 c499: t_2_25 - 43200 thr_2_25_360 <= 2940
 c500: t_3_9 - 43200 thr_3_9_0 <= 7689
 c501: t_3_9 - 43200 thr_3_9_180 <= 7869
 c502: t_3_9 - 43200 thr_3_9_360 <= 8049
 c503: t_4_39 - 43200 thr_4_39_0 <= 5774
 c504: t_4_39 - 43200 thr_4_39_180 <= 5954
 c505: t_4_39 - 43200 thr_4_39_360 <= 6134
 c506: t_5_39 - 43200 thr_5_39_0 <= 4380
 c507: t_5_39 - 43200 thr_5_39_180 <= 4560
 c508: t_5_39 - 43200 thr_5_39_360 <= 4740
 c509: t_6_29 - 43200 thr_6_29_0 <= 2270
 c510: t_6_29 - 43200 thr_6_29_180 <= 2450
 c511: t_6_29 - 43200 thr_6_29_360 <= 2630

Bounds
       t_0_0 <= 43200
 26 <= t_0_1 <= 43200
 266 <= t_0_2 <= 43200
 266 <= t_0_3 <= 43200
 476 <= t_0_4 <= 43200
 506 <= t_0_5 <= 43200
 806 <= t_0_6 <= 43200
 806 <= t_0_7 <= 43200
 986 <= t_0_8 <= 43200
 986 <= t_0_9 <= 43200
 1286 <= t_0_10 <= 43200
       t_1_0 <= 43200
       t_1_1 <= 43200
 297 <= t_1_2 <= 43200
 1437 <= t_1_3 <= 43200
 1710 <= t_1_4 <= 43200
 1710 <= t_1_5 <= 43200
 2050 <= t_1_6 <= 43200
 2050 <= t_1_7 <= 43200
 2162 <= t_1_8 <= 43200
 2162 <= t_1_9 <= 43200
 2238 <= t_1_10 <= 43200
 2238 <= t_1_11 <= 43200
 2457 <= t_1_12 <= 43200
 3056 <= t_1_13 <= 43200
 3160 <= t_1_14 <= 43200
 3160 <= t_1_15 <= 43200
 3297 <= t_1_16 <= 43200
 3477 <= t_1_17 <= 43200
 3622 <= t_1_18 <= 43200
 3622 <= t_1_19 <= 43200
 3799 <= t_1_20 <= 43200
 3799 <= t_1_21 <= 43200
 3928 <= t_1_22 <= 43200
 3928 <= t_1_23 <= 43200
 3972 <= t_1_24 <= 43200
 3972 <= t_1_25 <= 43200
 4116 <= t_1_26 <= 43200
 4116 <= t_1_27 <= 43200
 4197 <= t_1_28 <= 43200
 4677 <= t_1_29 <= 43200
 4760 <= t_1_30 <= 43200
 4760 <= t_1_31 <= 43200
 4899 <= t_1_32 <= 43200
 4899 <= t_1_33 <= 43200
 5097 <= t_1_34 <= 43200
       t_2_0 <= 43200
       t_2_1 <= 43200
 122 <= t_2_2 <= 43200
 152 <= t_2_3 <= 43200
 302 <= t_2_4 <= 43200
 332 <= t_2_5 <= 43200
 422 <= t_2_6 <= 43200
 452 <= t_2_7 <= 43200
 632 <= t_2_8 <= 43200
 812 <= t_2_9 <= 43200
 1022 <= t_2_10 <= 43200
 1052 <= t_2_11 <= 43200
 1136 <= t_2_12 <= 43200
 1136 <= t_2_13 <= 43200
 1262 <= t_2_14 <= 43200
 1292 <= t_2_15 <= 43200
 1567 <= t_2_16 <= 43200
 1567 <= t_2_17 <= 43200
 1772 <= t_2_18 <= 43200
 1772 <= t_2_19 <= 43200
 1982 <= t_2_20 <= 43200
 2012 <= t_2_21 <= 43200
 2304 <= t_2_22 <= 43200
 2304 <= t_2_23 <= 43200
 2492 <= t_2_24 <= 43200
 2672 <= t_2_25 <= 43200
 3032 <= t_2_26 <= 43200
 4020 <= t_3_0 <= 43200
 5820 <= t_3_1 <= 43200
 6251 <= t_3_2 <= 43200
 6251 <= t_3_3 <= 43200
 6560 <= t_3_4 <= 43200
 6560 <= t_3_5 <= 43200
 7140 <= t_3_6 <= 43200
 7380 <= t_3_7 <= 43200
 7689 <= t_3_8 <= 43200
 7689 <= t_3_9 <= 43200
 7988 <= t_3_10 <= 43200
       t_4_0 <= 43200
       t_4_1 <= 43200
 59 <= t_4_2 <= 43200
 59 <= t_4_3 <= 43200
 237 <= t_4_4 <= 43200
 237 <= t_4_5 <= 43200
 464 <= t_4_6 <= 43200
 464 <= t_4_7 <= 43200
 660 <= t_4_8 <= 43200
 1020 <= t_4_9 <= 43200
 1162 <= t_4_10 <= 43200
 1162 <= t_4_11 <= 43200
 1263 <= t_4_12 <= 43200
 1263 <= t_4_13 <= 43200
 1471 <= t_4_14 <= 43200
 1471 <= t_4_15 <= 43200
 1574 <= t_4_16 <= 43200
 1574 <= t_4_17 <= 43200
 1730 <= t_4_18 <= 43200
 1730 <= t_4_19 <= 43200
 2137 <= t_4_20 <= 43200
 2137 <= t_4_21 <= 43200
 2425 <= t_4_22 <= 43200
 2425 <= t_4_23 <= 43200
 2760 <= t_4_24 <= 43200
 3060 <= t_4_25 <= 43200
 3530 <= t_4_26 <= 43200
 3530 <= t_4_27 <= 43200
 3771 <= t_4_28 <= 43200
 3771 <= t_4_29 <= 43200
 4200 <= t_4_30 <= 43200
 4440 <= t_4_31 <= 43200
 4812 <= t_4_32 <= 43200
 4812 <= t_4_33 <= 43200
 5079 <= t_4_34 <= 43200
 5079 <= t_4_35 <= 43200
 5559 <= t_4_36 <= 43200
 5559 <= t_4_37 <= 43200
 5774 <= t_4_38 <= 43200
 5774 <= t_4_39 <= 43200
 6060 <= t_4_40 <= 43200
 660 <= t_5_0 <= 43200
 720 <= t_5_1 <= 43200
 877 <= t_5_2 <= 43200
 877 <= t_5_3 <= 43200
 990 <= t_5_4 <= 43200
 1020 <= t_5_5 <= 43200
 1170 <= t_5_6 <= 43200
 1200 <= t_5_7 <= 43200
 1290 <= t_5_8 <= 43200
 1320 <= t_5_9 <= 43200
 1440 <= t_5_10 <= 43200
 1440 <= t_5_11 <= 43200
 1485 <= t_5_12 <= 43200
 1485 <= t_5_13 <= 43200
 1620 <= t_5_14 <= 43200
 1680 <= t_5_15 <= 43200
 1890 <= t_5_16 <= 43200
 1920 <= t_5_17 <= 43200
 2070 <= t_5_18 <= 43200
 2100 <= t_5_19 <= 43200
 2250 <= t_5_20 <= 43200
 2280 <= t_5_21 <= 43200
 2370 <= t_5_22 <= 43200
 2400 <= t_5_23 <= 43200
 2571 <= t_5_24 <= 43200
 2571 <= t_5_25 <= 43200
 2654 <= t_5_26 <= 43200
 2654 <= t_5_27 <= 43200
 2780 <= t_5_28 <= 43200
 2820 <= t_5_29 <= 43200
 3300 <= t_5_30 <= 43200
 3480 <= t_5_31 <= 43200
 3720 <= t_5_32 <= 43200
 3720 <= t_5_33 <= 43200
 3930 <= t_5_34 <= 43200
 3960 <= t_5_35 <= 43200
 4200 <= t_5_36 <= 43200
 4200 <= t_5_37 <= 43200
 4380 <= t_5_38 <= 43200
 4380 <= t_5_39 <= 43200
 4740 <= t_5_40 <= 43200
       t_6_0 <= 43200
       t_6_1 <= 43200
 380 <= t_6_2 <= 43200
 420 <= t_6_3 <= 43200
 540 <= t_6_4 <= 43200
 540 <= t_6_5 <= 43200
 621 <= t_6_6 <= 43200
 621 <= t_6_7 <= 43200
 810 <= t_6_8 <= 43200
 840 <= t_6_9 <= 43200
 990 <= t_6_10 <= 43200
 1020 <= t_6_11 <= 43200
 1110 <= t_6_12 <= 43200
 1140 <= t_6_13 <= 43200
 1290 <= t_6_14 <= 43200
 1320 <= t_6_15 <= 43200
 1560 <= t_6_16 <= 43200
 1740 <= t_6_17 <= 43200
 1830 <= t_6_18 <= 43200
 1830 <= t_6_19 <= 43200
 1860 <= t_6_20 <= 43200
 1860 <= t_6_21 <= 43200
 2010 <= t_6_22 <= 43200
 2040 <= t_6_23 <= 43200
 2130 <= t_6_24 <= 43200
 2160 <= t_6_25 <= 43200
 2250 <= t_6_26 <= 43200
 2280 <= t_6_27 <= 43200
 2390 <= t_6_28 <= 43200
 2390 <= t_6_29 <= 43200
 2580 <= t_6_30 <= 43200
 0 <= y_0_1_1_3 <= 1
 0 <= y_0_3_1_1 <= 1
 0 <= y_0_1_2_17 <= 1
 0 <= y_0_3_2_19 <= 1
 0 <= y_0_5_2_21 <= 1
 0 <= y_0_7_2_23 <= 1
 0 <= y_0_9_2_25 <= 1
 0 <= y_0_1_4_21 <= 1
 0 <= y_0_3_4_23 <= 1
 0 <= y_0_5_4_25 <= 1
 0 <= y_0_7_4_27 <= 1
 0 <= y_0_9_4_29 <= 1
 0 <= y_0_1_5_31 <= 1
 0 <= y_0_3_5_33 <= 1
 0 <= y_0_5_5_35 <= 1
 0 <= y_0_7_5_37 <= 1
 0 <= y_0_9_5_39 <= 1
 0 <= y_1_1_2_19 <= 1
 0 <= y_1_3_2_17 <= 1
 0 <= y_1_5_2_15 <= 1
 0 <= y_1_7_2_13 <= 1
 0 <= y_1_9_2_11 <= 1
 0 <= y_1_11_2_9 <= 1
 0 <= y_1_13_2_7 <= 1
 0 <= y_1_15_2_5 <= 1
 0 <= y_1_17_2_3 <= 1
 0 <= y_1_19_2_1 <= 1
 0 <= y_1_1_4_23 <= 1
 0 <= y_1_3_4_21 <= 1
 0 <= y_1_5_4_19 <= 1
 0 <= y_1_7_4_17 <= 1
 0 <= y_1_9_4_15 <= 1
 0 <= y_1_11_4_13 <= 1
 0 <= y_1_13_4_11 <= 1
 0 <= y_1_15_4_9 <= 1
 0 <= y_1_17_4_7 <= 1
 0 <= y_1_19_4_5 <= 1
 0 <= y_1_21_4_3 <= 1
 0 <= y_1_23_4_1 <= 1
 0 <= y_1_1_5_33 <= 1
 0 <= y_1_3_5_31 <= 1
 0 <= y_1_5_5_29 <= 1
 0 <= y_1_7_5_27 <= 1
 0 <= y_1_9_5_25 <= 1
 0 <= y_1_11_5_23 <= 1
 0 <= y_1_13_5_21 <= 1
 0 <= y_1_15_5_19 <= 1
 0 <= y_1_17_5_17 <= 1
 0 <= y_1_19_5_15 <= 1
 0 <= y_1_21_5_13 <= 1
 0 <= y_1_23_5_11 <= 1
 0 <= y_1_25_5_9 <= 1
 0 <= y_1_27_5_7 <= 1
 0 <= y_1_29_5_5 <= 1
 0 <= y_1_31_5_3 <= 1
 0 <= y_1_33_5_1 <= 1
 0 <= y_1_5_6_1 <= 1
 0 <= y_1_7_6_3 <= 1
 0 <= y_1_9_6_5 <= 1
 0 <= y_1_11_6_7 <= 1
 0 <= y_1_13_6_9 <= 1
 0 <= y_1_15_6_11 <= 1
 0 <= y_1_17_6_13 <= 1
 0 <= y_1_19_6_15 <= 1
 0 <= y_1_21_6_17 <= 1
 0 <= y_1_23_6_19 <= 1
 0 <= y_1_25_6_21 <= 1
 0 <= y_1_27_6_23 <= 1
 0 <= y_1_29_6_25 <= 1
 0 <= y_1_31_6_27 <= 1
 0 <= y_1_33_6_29 <= 1
 0 <= y_2_1_4_5 <= 1
 0 <= y_2_3_4_7 <= 1
 0 <= y_2_5_4_9 <= 1
 0 <= y_2_7_4_11 <= 1
 0 <= y_2_9_4_13 <= 1
 0 <= y_2_11_4_15 <= 1
 0 <= y_2_13_4_17 <= 1
 0 <= y_2_15_4_19 <= 1
 0 <= y_2_17_4_21 <= 1
 0 <= y_2_19_4_23 <= 1
 0 <= y_2_21_4_25 <= 1
 0 <= y_2_23_4_27 <= 1
 0 <= y_2_25_4_29 <= 1
 0 <= y_2_1_5_15 <= 1
 0 <= y_2_3_5_17 <= 1
 0 <= y_2_5_5_19 <= 1
 0 <= y_2_7_5_21 <= 1
 0 <= y_2_9_5_23 <= 1
 0 <= y_2_11_5_25 <= 1
 0 <= y_2_13_5_27 <= 1
 0 <= y_2_15_5_29 <= 1
 0 <= y_2_17_5_31 <= 1
 0 <= y_2_19_5_33 <= 1
 0 <= y_2_21_5_35 <= 1
 0 <= y_2_23_5_37 <= 1
 0 <= y_2_25_5_39 <= 1
 0 <= y_2_1_6_15 <= 1
 0 <= y_2_3_6_13 <= 1
 0 <= y_2_5_6_11 <= 1
 0 <= y_2_7_6_9 <= 1
 0 <= y_2_9_6_7 <= 1
 0 <= y_2_11_6_5 <= 1
 0 <= y_2_13_6_3 <= 1
 0 <= y_2_15_6_1 <= 1
 0 <= y_3_1_4_31 <= 1
 0 <= y_3_3_4_33 <= 1
 0 <= y_3_5_4_35 <= 1
 0 <= y_3_7_4_37 <= 1
 0 <= y_3_9_4_39 <= 1
 0 <= y_4_1_5_11 <= 1
 0 <= y_4_3_5_13 <= 1
 0 <= y_4_5_5_15 <= 1
 0 <= y_4_7_5_17 <= 1
 0 <= y_4_9_5_19 <= 1
 0 <= y_4_11_5_21 <= 1
 0 <= y_4_13_5_23 <= 1
 0 <= y_4_15_5_25 <= 1
 0 <= y_4_17_5_27 <= 1
 0 <= y_4_19_5_29 <= 1
 0 <= y_4_21_5_31 <= 1
 0 <= y_4_23_5_33 <= 1
 0 <= y_4_25_5_35 <= 1
 0 <= y_4_27_5_37 <= 1
 0 <= y_4_29_5_39 <= 1
 0 <= y_4_1_6_19 <= 1
 0 <= y_4_3_6_17 <= 1
 0 <= y_4_5_6_15 <= 1
 0 <= y_4_7_6_13 <= 1
 0 <= y_4_9_6_11 <= 1
 0 <= y_4_11_6_9 <= 1
 0 <= y_4_13_6_7 <= 1
 0 <= y_4_15_6_5 <= 1
 0 <= y_4_17_6_3 <= 1
 0 <= y_4_19_6_1 <= 1
 0 <= y_5_1_6_29 <= 1
 0 <= y_5_3_6_27 <= 1
 0 <= y_5_5_6_25 <= 1
 0 <= y_5_7_6_23 <= 1
 0 <= y_5_9_6_21 <= 1
 0 <= y_5_11_6_19 <= 1
 0 <= y_5_13_6_17 <= 1
 0 <= y_5_15_6_15 <= 1
 0 <= y_5_17_6_13 <= 1
 0 <= y_5_19_6_11 <= 1
 0 <= y_5_21_6_9 <= 1
 0 <= y_5_23_6_7 <= 1
 0 <= y_5_25_6_5 <= 1
 0 <= y_5_27_6_3 <= 1
 0 <= y_5_29_6_1 <= 1
 0 <= thr_0_9_0 <= 1
 0 <= thr_0_9_180 <= 1
 0 <= thr_0_9_360 <= 1
 0 <= thr_1_33_0 <= 1
 0 <= thr_1_33_180 <= 1
 0 <= thr_1_33_360 <= 1
 0 <= thr_2_25_0 <= 1
 0 <= thr_2_25_180 <= 1
 0 <= thr_2_25_360 <= 1
 0 <= thr_3_9_0 <= 1
 0 <= thr_3_9_180 <= 1
 0 <= thr_3_9_360 <= 1
 0 <= thr_4_39_0 <= 1
 0 <= thr_4_39_180 <= 1
 0 <= thr_4_39_360 <= 1
 0 <= thr_5_39_0 <= 1
 0 <= thr_5_39_180 <= 1
 0 <= thr_5_39_360 <= 1
 0 <= thr_6_29_0 <= 1
 0 <= thr_6_29_180 <= 1
 0 <= thr_6_29_360 <= 1

Binaries
 y_0_1_1_3 y_0_3_1_1 y_0_1_2_17 y_0_3_2_19 y_0_5_2_21 y_0_7_2_23 y_0_9_2_25
 y_0_1_4_21 y_0_3_4_23 y_0_5_4_25 y_0_7_4_27 y_0_9_4_29 y_0_1_5_31 y_0_3_5_33
 y_0_5_5_35 y_0_7_5_37 y_0_9_5_39 y_1_1_2_19 y_1_3_2_17 y_1_5_2_15 y_1_7_2_13
 y_1_9_2_11 y_1_11_2_9 y_1_13_2_7 y_1_15_2_5 y_1_17_2_3 y_1_19_2_1 y_1_1_4_23
 y_1_3_4_21 y_1_5_4_19 y_1_7_4_17 y_1_9_4_15 y_1_11_4_13 y_1_13_4_11 y_1_15_4_9
 y_1_17_4_7 y_1_19_4_5 y_1_21_4_3 y_1_23_4_1 y_1_1_5_33 y_1_3_5_31 y_1_5_5_29
 y_1_7_5_27 y_1_9_5_25 y_1_11_5_23 y_1_13_5_21 y_1_15_5_19 y_1_17_5_17
 y_1_19_5_15 y_1_21_5_13 y_1_23_5_11 y_1_25_5_9 y_1_27_5_7 y_1_29_5_5 y_1_31_5_3
 y_1_33_5_1 y_1_5_6_1 y_1_7_6_3 y_1_9_6_5 y_1_11_6_7 y_1_13_6_9 y_1_15_6_11
 y_1_17_6_13 y_1_19_6_15 y_1_21_6_17 y_1_23_6_19 y_1_25_6_21 y_1_27_6_23
 y_1_29_6_25 y_1_31_6_27 y_1_33_6_29 y_2_1_4_5 y_2_3_4_7 y_2_5_4_9 y_2_7_4_11
 y_2_9_4_13 y_2_11_4_15 y_2_13_4_17 y_2_15_4_19 y_2_17_4_21 y_2_19_4_23
 y_2_21_4_25 y_2_23_4_27 y_2_25_4_29 y_2_1_5_15 y_2_3_5_17 y_2_5_5_19 y_2_7_5_21
 y_2_9_5_23 y_2_11_5_25 y_2_13_5_27 y_2_15_5_29 y_2_17_5_31 y_2_19_5_33
 y_2_21_5_35 y_2_23_5_37 y_2_25_5_39 y_2_1_6_15 y_2_3_6_13 y_2_5_6_11 y_2_7_6_9
 y_2_9_6_7 y_2_11_6_5 y_2_13_6_3 y_2_15_6_1 y_3_1_4_31 y_3_3_4_33 y_3_5_4_35
 y_3_7_4_37 y_3_9_4_39 y_4_1_5_11 y_4_3_5_13 y_4_5_5_15 y_4_7_5_17 y_4_9_5_19
 y_4_11_5_21 y_4_13_5_23 y_4_15_5_25 y_4_17_5_27 y_4_19_5_29 y_4_21_5_31
 y_4_23_5_33 y_4_25_5_35 y_4_27_5_37 y_4_29_5_39 y_4_1_6_19 y_4_3_6_17
 y_4_5_6_15 y_4_7_6_13 y_4_9_6_11 y_4_11_6_9 y_4_13_6_7 y_4_15_6_5 y_4_17_6_3
 y_4_19_6_1 y_5_1_6_29 y_5_3_6_27 y_5_5_6_25 y_5_7_6_23 y_5_9_6_21 y_5_11_6_19
 y_5_13_6_17 y_5_15_6_15 y_5_17_6_13 y_5_19_6_11 y_5_21_6_9 y_5_23_6_7
 y_5_25_6_5 y_5_27_6_3 y_5_29_6_1 thr_0_9_0 thr_0_9_180 thr_0_9_360 thr_1_33_0
 thr_1_33_180 thr_1_33_360 thr_2_25_0 thr_2_25_180 thr_2_25_360 thr_3_9_0
 thr_3_9_180 thr_3_9_360 thr_4_39_0 thr_4_39_180 thr_4_39_360 thr_5_39_0
 thr_5_39_180 thr_5_39_360 thr_6_29_0 thr_6_29_180 thr_6_29_360
End
